6358
1 1 0 0 0 0 0 0 0 1 0 0 1 0 1 0 0 1 0 0 0 1 0 0 0 0 0 0 0 1 
0 0 1 0 1 0 1 1 29 0 29 1 0 12 14 1 12 14 1 1 14 9 9 9 9 9 9 12 12 12 12 14 12 14 12 14 17 17 17 17 17 17 17 17 17 12 17 17 21 17 21 17 0 21 21 21 21 21 29 29 0 0 0 0 29 29 29 29 29 29 
